12 40 9 10
5 16 11 7 15 3 13 15 19 16 10 16 15 3 13 20 1 19 7 14 2 4 15 3 12 8 1 15 19 18 4 1 17 4 6 13 13 13 16 3 
7.4 4.9 7.42 8.06 4.54 2.83 9.46 15.11 6.67 10.54 2.29 2.82 9.31 1.01 12.4 11.75 4.01 11.76 11.25 5.72 1.52 2.39 0.59 15.89 0.11 6.62 11.92 7.88 1.96 7.92 12.32 11.48 3.81 3.44 14.03 9.76 14.05 9.56 4.84 4.08 
11.22 4.53 9.05 8.94 7.23 13.52 8.77 10.58 3.06 14.75 2.55 3.1 1.45 10.54 0.57 9.49 14 11.81 0.69 12.45 6.4 11.06 8.34 2.27 3.41 14.5 3.47 6.69 4.29 12.08 2.11 6.15 14.96 1.37 5.51 7.98 8.41 6.03 7.33 7.96 
4.48 2.92 12.19 10.45 7.68 12.13 6.16 9.38 5.37 15.07 12.34 6.66 0.72 11.95 4.35 15.91 5.16 4.34 9.59 2.7 0.09 1.96 11.63 7.04 0.91 8.69 14.65 3.78 6.72 1.34 9.69 2.33 5.92 2.19 13.98 11.59 1.07 10.46 10.72 7.69 
6.51 10.9 5.99 3.44 12.1 15.69 6.44 6.58 9.75 2.09 5.71 3.07 0.26 11.41 6.17 13.76 1.91 14.75 0.59 11.17 7.04 3.09 10.44 10.35 10.55 3.6 4.46 2.32 7.93 10.61 6.7 16 14.64 4.51 1.87 11.55 1.17 14.58 0.83 8.39 
9.36 7.39 7.37 12.6 14.98 3.67 6.27 12.33 5.9 2.73 0.82 10.02 14.91 11.11 5.87 6.21 13.27 5.75 1.52 4.77 11.6 3.59 1.93 5.69 8.32 1.04 1.31 4.79 0.27 11.67 6.38 9.77 10.92 10.17 15.38 1.76 9.21 10.65 4.54 4.73 
0.25 1.06 10.78 11.35 13.89 5.48 10.9 10.85 1.32 12.55 12.51 11.3 6.86 5.87 1.71 3.1 10.05 1.77 10.45 10.24 12.53 2.48 5.95 9.59 15.25 9.16 7.21 3.04 11.76 5.9 8.8 7.85 2.32 4.39 1.46 11.4 4.51 15.44 11.32 8.22 
8 14.05 2.56 9.92 0.08 12.45 12.06 0.21 2.14 11.86 8.38 12.76 3.06 3.35 13.95 10.27 4.62 10.91 12.95 0.69 11.65 13.42 13.03 0.02 12.14 3.46 4.43 14.04 5.97 15.3 0.12 6.81 15.74 1.07 5.16 1.86 13.38 9.69 9.11 13.01 
5.4 3.32 13.47 3.54 13.84 3.85 15.21 7.12 12.94 7.02 10.37 14.82 7.12 5.65 1.21 0.48 6.53 7.87 2.86 0.95 14.07 6.8 3.29 11.3 15.17 3.27 1.94 6.8 3.33 11.03 11.8 15.14 1.51 1.61 4.42 8.09 11.81 5.14 6.49 1.06 
1.74 9.34 3.35 7.84 2.92 3.44 2.15 3.48 8.32 9.68 15.91 10.93 2.08 14.99 5.02 13.29 6.12 11.31 0.45 7.96 10.39 15.87 11.98 11.62 3.46 3.98 9.45 8.15 6.76 13.78 5.7 11.09 3.62 3.15 13.87 5.36 14.17 5.15 2.89 0.17 
8 8 8 8 8 8 8 8 8 8 8 8 8 8 8 8 8 8 8 8 8 8 8 8 8 8 8 8 8 8 8 8 8 8 8 8 8 8 8 8 
11.13 6.11 0.96 15.09 13.62 2.85 1.62 13.27 1.77 8.3 8.26 1.87 2.85 6.45 5.29 9.59 6.26 4.74 0 4.9 12.91 10.18 1.37 0.22 7.98 0.42 8.12 0.71 7.59 7.74 10.68 13.22 7.83 0.42 10.37 9.63 1.96 1.22 13.91 1.53 
7.68 4.59 14.97 12.53 6.4 2.73 9.45 15.54 3.07 8.69 15.11 7.92 2.17 0.73 6.7 13.01 0.61 0.37 12.29 0.5 2.1 4.62 3.38 15.56 5.8 8.98 10.11 2.68 10.34 7.11 10.55 6 10.87 5.25 14.02 11.81 3.26 2.47 5.53 9.14 
1 1 1 1 1 1 1 1 1 1 1 1 1 1 1 1 1 1 1 1 1 1 1 1 1 1 1 1 1 1 1 1 1 1 1 1 1 1 1 1 
1 1 1 1 1 1 1 1 1 1 1 1 1 1 1 1 1 1 1 1 1 1 1 1 1 1 1 1 1 1 1 1 1 1 1 1 1 1 1 1 
1 1 1 1 1 1 1 1 1 1 1 1 1 1 1 1 1 1 1 1 1 1 1 1 1 1 1 1 1 1 1 1 1 1 1 1 1 1 1 1 
1 1 1 1 1 1 1 1 1 1 1 1 1 1 1 1 1 1 1 1 1 1 1 1 1 1 1 1 1 1 1 1 1 1 1 1 1 1 1 1 
1 1 1 1 1 1 1 1 1 1 1 1 1 1 1 1 1 1 1 1 1 1 1 1 1 1 1 1 1 1 1 1 1 1 1 1 1 1 1 1 
1 1 1 1 1 1 1 1 1 1 1 1 1 1 1 1 1 1 1 1 1 1 1 1 1 1 1 1 1 1 1 1 1 1 1 1 1 1 1 1 
1 1 1 1 1 1 1 1 1 1 1 1 1 1 1 1 1 1 1 1 1 1 1 1 1 1 1 1 1 1 1 1 1 1 1 1 1 1 1 1 
1 1 1 1 1 1 1 1 1 1 1 1 1 1 1 1 1 1 1 1 1 1 1 1 1 1 1 1 1 1 1 1 1 1 1 1 1 1 1 1 
1 1 1 1 1 1 1 1 1 1 1 1 1 1 1 1 1 1 1 1 1 1 1 1 1 1 1 1 1 1 1 1 1 1 1 1 1 1 1 1 
1 1 1 1 1 1 1 1 1 1 1 1 1 1 1 1 1 1 1 1 1 1 1 1 1 1 1 1 1 1 1 1 1 1 1 1 1 1 1 1 
1 1 1 1 1 1 1 1 1 1 1 1 1 1 1 1 1 1 1 1 1 1 1 1 1 1 1 1 1 1 1 1 1 1 1 1 1 1 1 1 
1 1 1 1 1 1 1 1 1 1 1 1 1 1 1 1 1 1 1 1 1 1 1 1 1 1 1 1 1 1 1 1 1 1 1 1 1 1 1 1 
0.01 0.01 0.01 0.01 0.01 0.01 0.01 0.01 0.01 0.01 0.01 0.01 0.01 0.01 0.01 0.01 0.01 0.01 0.01 0.01 0.01 0.01 0.01 0.01 0.01 0.01 0.01 0.01 0.01 0.01 0.01 0.01 0.01 0.01 0.01 0.01 0.01 0.01 0.01 0.01 
0.02 0.02 0.02 0.02 0.02 0.02 0.02 0.02 0.02 0.02 0.02 0.02 0.02 0.02 0.02 0.02 0.02 0.02 0.02 0.02 0.02 0.02 0.02 0.02 0.02 0.02 0.02 0.02 0.02 0.02 0.02 0.02 0.02 0.02 0.02 0.02 0.02 0.02 0.02 0.02 
0.03 0.03 0.03 0.03 0.03 0.03 0.03 0.03 0.03 0.03 0.03 0.03 0.03 0.03 0.03 0.03 0.03 0.03 0.03 0.03 0.03 0.03 0.03 0.03 0.03 0.03 0.03 0.03 0.03 0.03 0.03 0.03 0.03 0.03 0.03 0.03 0.03 0.03 0.03 0.03 
0.04 0.04 0.04 0.04 0.04 0.04 0.04 0.04 0.04 0.04 0.04 0.04 0.04 0.04 0.04 0.04 0.04 0.04 0.04 0.04 0.04 0.04 0.04 0.04 0.04 0.04 0.04 0.04 0.04 0.04 0.04 0.04 0.04 0.04 0.04 0.04 0.04 0.04 0.04 0.04 
0.05 0.05 0.05 0.05 0.05 0.05 0.05 0.05 0.05 0.05 0.05 0.05 0.05 0.05 0.05 0.05 0.05 0.05 0.05 0.05 0.05 0.05 0.05 0.05 0.05 0.05 0.05 0.05 0.05 0.05 0.05 0.05 0.05 0.05 0.05 0.05 0.05 0.05 0.05 0.05 
0.06 0.06 0.06 0.06 0.06 0.06 0.06 0.06 0.06 0.06 0.06 0.06 0.06 0.06 0.06 0.06 0.06 0.06 0.06 0.06 0.06 0.06 0.06 0.06 0.06 0.06 0.06 0.06 0.06 0.06 0.06 0.06 0.06 0.06 0.06 0.06 0.06 0.06 0.06 0.06 
0.07 0.07 0.07 0.07 0.07 0.07 0.07 0.07 0.07 0.07 0.07 0.07 0.07 0.07 0.07 0.07 0.07 0.07 0.07 0.07 0.07 0.07 0.07 0.07 0.07 0.07 0.07 0.07 0.07 0.07 0.07 0.07 0.07 0.07 0.07 0.07 0.07 0.07 0.07 0.07 
0.08 0.08 0.08 0.08 0.08 0.08 0.08 0.08 0.08 0.08 0.08 0.08 0.08 0.08 0.08 0.08 0.08 0.08 0.08 0.08 0.08 0.08 0.08 0.08 0.08 0.08 0.08 0.08 0.08 0.08 0.08 0.08 0.08 0.08 0.08 0.08 0.08 0.08 0.08 0.08 
0.09 0.09 0.09 0.09 0.09 0.09 0.09 0.09 0.09 0.09 0.09 0.09 0.09 0.09 0.09 0.09 0.09 0.09 0.09 0.09 0.09 0.09 0.09 0.09 0.09 0.09 0.09 0.09 0.09 0.09 0.09 0.09 0.09 0.09 0.09 0.09 0.09 0.09 0.09 0.09 
0.1 0.1 0.1 0.1 0.1 0.1 0.1 0.1 0.1 0.1 0.1 0.1 0.1 0.1 0.1 0.1 0.1 0.1 0.1 0.1 0.1 0.1 0.1 0.1 0.1 0.1 0.1 0.1 0.1 0.1 0.1 0.1 0.1 0.1 0.1 0.1 0.1 0.1 0.1 0.1 
0.5 0.5 0.5 0.5 0.5 0.5 0.5 0.5 0.5 0.5 0.5 0.5 0.5 0.5 0.5 0.5 0.5 0.5 0.5 0.5 0.5 0.5 0.5 0.5 0.5 0.5 0.5 0.5 0.5 0.5 0.5 0.5 0.5 0.5 0.5 0.5 0.5 0.5 0.5 0.5 
1 1 1 1 1 1 1 1 1 1 1 1 1 1 1 1 1 1 1 1 1 1 1 1 1 1 1 1 1 1 1 1 1 1 1 1 1 1 1 1 
